
Gurobi 10.0.1 (win64) logging started Wed Apr 29 00:15:20 2026

Set parameter LogFile to value "D:\Project_Code\Paper\DP_LBBD_1\DP_lbbd\Algorithm\Results\mip_v1\small\exp_3f_15j_seed2\log\exp_3f_15j_seed2_gurobi.log"
Set parameter LogToConsole to value 0
Gurobi Optimizer version 10.0.1 build v10.0.1rc0 (win64)

CPU model: Intel(R) Core(TM) Ultra 7 265KF, instruction set [SSE2|AVX|AVX2]
Thread count: 20 physical cores, 20 logical processors, using up to 20 threads

Optimize a model with 4680 rows, 2340 columns and 22140 nonzeros
Model fingerprint: 0xf48ad980
Variable types: 180 continuous, 2160 integer (2160 binary)
Coefficient statistics:
  Matrix range     [1e+00, 9e+01]
  Objective range  [5e+01, 2e+03]
  Bounds range     [1e+00, 9e+01]
  RHS range        [1e+00, 3e+02]
Found heuristic solution: objective -0.0000000
Presolve removed 2606 rows and 1288 columns
Presolve time: 0.02s
Presolved: 2074 rows, 1052 columns, 9690 nonzeros
Variable types: 124 continuous, 928 integer (928 binary)

Root relaxation: objective 8.084410e+03, 335 iterations, 0.00 seconds (0.01 work units)

    Nodes    |    Current Node    |     Objective Bounds      |     Work
 Expl Unexpl |  Obj  Depth IntInf | Incumbent    BestBd   Gap | It/Node Time

     0     0 8084.40988    0  122   -0.00000 8084.40988      -     -    0s
H    0     0                    3395.7498644 8084.40988   138%     -    0s
H    0     0                    4083.7338446 8084.40988  98.0%     -    0s
H    0     0                    4506.5116246 8084.40988  79.4%     -    0s
     0     0 8068.85391    0  102 4506.51162 8068.85391  79.0%     -    0s
     0     0 8064.33971    0   96 4506.51162 8064.33971  78.9%     -    0s
     0     0 8064.16977    0   98 4506.51162 8064.16977  78.9%     -    0s
     0     0 8064.16977    0  104 4506.51162 8064.16977  78.9%     -    0s
     0     0 7940.56889    0  104 4506.51162 7940.56889  76.2%     -    0s
     0     0 7894.36867    0  105 4506.51162 7894.36867  75.2%     -    0s
     0     0 7894.36867    0   72 4506.51162 7894.36867  75.2%     -    0s
     0     0 7894.36867    0   73 4506.51162 7894.36867  75.2%     -    0s
     0     0 7894.36867    0   82 4506.51162 7894.36867  75.2%     -    0s
     0     0 7886.33755    0  102 4506.51162 7886.33755  75.0%     -    0s
H    0     0                    4743.2497598 7879.68524  66.1%     -    0s
     0     0 7879.68524    0   97 4743.24976 7879.68524  66.1%     -    0s
     0     0 7879.68524    0   79 4743.24976 7879.68524  66.1%     -    0s
     0     0 7817.82861    0  118 4743.24976 7817.82861  64.8%     -    0s
     0     0 7799.89016    0   94 4743.24976 7799.89016  64.4%     -    0s
     0     0 7796.80635    0  106 4743.24976 7796.80635  64.4%     -    0s
     0     0 7796.80635    0  108 4743.24976 7796.80635  64.4%     -    0s
     0     0 7780.41596    0  119 4743.24976 7780.41596  64.0%     -    0s
H    0     0                    4753.1689560 7770.70961  63.5%     -    0s
     0     0 7770.70961    0  116 4753.16896 7770.70961  63.5%     -    0s
     0     0 7762.44370    0  109 4753.16896 7762.44370  63.3%     -    0s
     0     0 7760.54205    0  121 4753.16896 7760.54205  63.3%     -    0s
     0     0 7759.93608    0  114 4753.16896 7759.93608  63.3%     -    0s
     0     0 7759.93608    0  112 4753.16896 7759.93608  63.3%     -    0s
H    0     0                    5184.0121199 7759.93608  49.7%     -    0s
     0     0 7746.79290    0  129 5184.01212 7746.79290  49.4%     -    0s
     0     0 7744.90004    0  116 5184.01212 7744.90004  49.4%     -    0s
     0     0 7738.03000    0  119 5184.01212 7738.03000  49.3%     -    0s
     0     0 7738.03000    0  127 5184.01212 7738.03000  49.3%     -    0s
H    0     0                    5710.1179557 7738.03000  35.5%     -    0s
     0     0 7732.23143    0  131 5710.11796 7732.23143  35.4%     -    0s
     0     0 7729.33442    0  108 5710.11796 7729.33442  35.4%     -    0s
     0     0 7725.76763    0   98 5710.11796 7725.76763  35.3%     -    0s
     0     0 7725.76763    0  103 5710.11796 7725.76763  35.3%     -    0s
     0     0 7714.98750    0   98 5710.11796 7714.98750  35.1%     -    0s
     0     0 7714.98750    0  108 5710.11796 7714.98750  35.1%     -    0s
     0     0 7708.81655    0  107 5710.11796 7708.81655  35.0%     -    0s
     0     0 7675.68074    0  111 5710.11796 7675.68074  34.4%     -    0s
     0     0 7675.68074    0  110 5710.11796 7675.68074  34.4%     -    0s
     0     0 7675.68074    0  112 5710.11796 7675.68074  34.4%     -    0s
     0     0 7675.68074    0  117 5710.11796 7675.68074  34.4%     -    0s
     0     0 7667.58126    0  121 5710.11796 7667.58126  34.3%     -    0s
     0     0 7667.58126    0  113 5710.11796 7667.58126  34.3%     -    0s
     0     0 7613.04137    0  112 5710.11796 7613.04137  33.3%     -    0s
     0     0 7594.61941    0  100 5710.11796 7594.61941  33.0%     -    0s
     0     0 7594.27793    0  108 5710.11796 7594.27793  33.0%     -    0s
     0     0 7594.27793    0  101 5710.11796 7594.27793  33.0%     -    0s
     0     0 7594.27793    0  100 5710.11796 7594.27793  33.0%     -    0s
     0     0 7594.27793    0  105 5710.11796 7594.27793  33.0%     -    0s
     0     0 7593.54136    0  109 5710.11796 7593.54136  33.0%     -    0s
     0     0 7592.49070    0  110 5710.11796 7592.49070  33.0%     -    0s
     0     0 7590.46684    0  111 5710.11796 7590.46684  32.9%     -    0s
     0     0 7590.46684    0  108 5710.11796 7590.46684  32.9%     -    0s
     0     0 7590.46684    0  108 5710.11796 7590.46684  32.9%     -    0s
     0     0 7590.46684    0  108 5710.11796 7590.46684  32.9%     -    0s
     0     0 7589.02222    0  114 5710.11796 7589.02222  32.9%     -    0s
     0     0 7587.22528    0  113 5710.11796 7587.22528  32.9%     -    0s
     0     0 7587.22528    0  112 5710.11796 7587.22528  32.9%     -    0s
     0     0 7584.62062    0  105 5710.11796 7584.62062  32.8%     -    0s
     0     0 7580.43357    0  115 5710.11796 7580.43357  32.8%     -    0s
     0     0 7576.54812    0  110 5710.11796 7576.54812  32.7%     -    0s
     0     0 7576.30442    0  113 5710.11796 7576.30442  32.7%     -    0s
     0     0 7576.22983    0  121 5710.11796 7576.22983  32.7%     -    0s
     0     0 7573.91818    0  118 5710.11796 7573.91818  32.6%     -    0s
     0     0 7573.51852    0  111 5710.11796 7573.51852  32.6%     -    0s
     0     0 7573.51852    0  112 5710.11796 7573.51852  32.6%     -    0s
     0     0 7573.51852    0  113 5710.11796 7573.51852  32.6%     -    0s
     0     0 7573.51852    0  118 5710.11796 7573.51852  32.6%     -    0s
     0     0 7573.48545    0  119 5710.11796 7573.48545  32.6%     -    0s
     0     0 7573.48545    0   93 5710.11796 7573.48545  32.6%     -    0s
     0     2 7573.48545    0   65 5710.11796 7573.48545  32.6%     -    0s
H  436   273                    5805.7233618 7428.43751  28.0%  55.8    1s
H  476   278                    5948.7754153 7428.43751  24.9%  56.2    1s
 10636  1935 6397.10562   18   93 5948.77542 6648.29432  11.8%  31.9    5s
H20728  1167                    5948.7754411 6180.48196  3.90%  11.6    8s

Cutting planes:
  Learned: 58
  Gomory: 90
  Cover: 95
  Projected implied bound: 1
  MIR: 256
  StrongCG: 2
  Flow cover: 423
  Inf proof: 2
  Relax-and-lift: 12

Explored 22164 nodes (633321 simplex iterations) in 8.26 seconds (7.40 work units)
Thread count was 20 (of 20 available processors)

Solution count 10: 5948.78 5948.78 5805.72 ... 3395.75

Optimal solution found (tolerance 1.00e-04)
Best objective 5.948775440934e+03, best bound 5.948775441082e+03, gap 0.0000%
